c 9th DIMACS Implementation Challenge: Shortest Paths
c http://www.dis.uniroma1.it/~challenge9
c Sample graph file
c
p sp 38 78 
c graph contains 6 nodes and 8 arcs
c node ids are numbers in 1..6
c
a 1 2 17
c arc from node 1 to node 2 of weight 17
c
a 1 3 10
a 2 4 2
a 3 5 0
a 3 9 0
a 4 6 3
a 5 2 0
a 5 3 20
a 5 4 20
a 5 6 20
a 5 7 20
a 5 8 20
a 5 9 20
a 5 10 20
a 5 11 20
a 5 12 20
a 5 13 20
a 5 14 20
a 5 15 20
a 5 16 20
a 5 17 20
a 5 18 20
a 5 19 20
a 5 20 20
a 5 21 20
a 5 22 20
a 5 23 20
a 5 24 20
a 5 25 20
a 5 26 20
a 5 27 20
a 5 28 20
a 5 29 20
a 5 30 20
a 5 31 20
a 5 32 20
a 5 33 20
a 5 34 20
a 5 35 20
a 5 36 20
a 5 37 20
a 5 38 20
a 9 2 0
a 9 3 20
a 9 4 20
a 9 5 20
a 9 6 20
a 9 7 20
a 9 8 20
a 9 10 20
a 9 11 20
a 9 12 20
a 9 13 20
a 9 14 20
a 9 15 20
a 9 16 20
a 9 17 20
a 9 18 20
a 9 19 20
a 9 20 20
a 9 21 20
a 9 22 20
a 9 23 20
a 9 24 20
a 9 25 20
a 9 26 20
a 9 27 20
a 9 28 20
a 9 29 20
a 9 30 20
a 9 31 20
a 9 32 20
a 9 33 20
a 9 34 20
a 9 35 20
a 9 36 20
a 9 37 20
a 9 38 20
